(set-logic QF_S)
(declare-fun var0 () String)
(declare-fun var1 () Int)
(declare-fun var2 () Bool)
(declare-fun var3 () String)
(declare-fun var4 () Int)
(declare-fun var5 () Bool)
(declare-fun var6 () String)
(declare-fun var7 () Int)
(declare-fun var8 () Bool)
(assert (str.contains (str.at (str.replace var6 var0 var0) (str.indexof var0 ">P?8PBi((_" var4)) (str.substr (str.at var0 var1) (str.indexof var6 var6 var7) (str.len var3))))
(assert (str.in.re (str.replace "u^I@rBlba&" var3 var0) (re.+ re.allchar)))
(assert (str.suffixof (str.replace (str.substr var3 var7 0) (str.at var6 var1) (str.substr var0 var4 var7)) (str.replace (str.substr var6 var1 var1) (str.substr var3 3 5) (str.at var0 var7))))
(assert (str.suffixof "NL8O""jxoTe" var0))
(check-sat)